************************************************************************
file with basedata            : mm11_.bas
initial value random generator: 815143149
************************************************************************
projects                      :  1
jobs (incl. supersource/sink ):  12
horizon                       :  78
RESOURCES
  - renewable                 :  2   R
  - nonrenewable              :  2   N
  - doubly constrained        :  0   D
************************************************************************
PROJECT INFORMATION:
pronr.  #jobs rel.date duedate tardcost  MPM-Time
    1     10      0       12        7       12
************************************************************************
PRECEDENCE RELATIONS:
jobnr.    #modes  #successors   successors
   1        1          3           2   3   4
   2        3          2           5   8
   3        3          3           5   6   8
   4        3          1           9
   5        3          2          10  11
   6        3          2           7   9
   7        3          1          11
   8        3          1           9
   9        3          1          12
  10        3          1          12
  11        3          1          12
  12        1          0        
************************************************************************
REQUESTS/DURATIONS:
jobnr. mode duration  R 1  R 2  N 1  N 2
------------------------------------------------------------------------
  1      1     0       0    0    0    0
  2      1     1       0    5   10    0
         2     4       0    5    0    7
         3     6       0    4    0    3
  3      1     1       6    0    0    9
         2     2       5    0    3    0
         3    10       0    3    0    9
  4      1     4      10    0    5    0
         2     7       7    0    5    0
         3     8       5    0    5    0
  5      1     5       0    9    4    0
         2     9       7    0    0    6
         3    10       0    6    4    0
  6      1     1       3    0    7    0
         2     3       0    8    0    2
         3     8       0    4    7    0
  7      1     2       0    5    9    0
         2     3       7    0    0    6
         3     8       0    5    8    0
  8      1     2       9    0    0    9
         2     3       5    0    0    7
         3     8       2    0    0    7
  9      1     5       0    5    5    0
         2     5       0    3    0    9
         3     7       0    2    6    0
 10      1     2       5    0    2    0
         2     4       0    6    0    7
         3     6       3    0    0    7
 11      1     6       0    3    0    1
         2     7       0    3    3    0
         3     7       5    0    4    0
 12      1     0       0    0    0    0
************************************************************************
RESOURCEAVAILABILITIES:
  R 1  R 2  N 1  N 2
   19   12   37   41
************************************************************************
